--- Job EVCS_15_F.gms Start 04/29/22 23:32:06 34.3.0 rac355f3 WEX-WEI x86 64bit/MS Windows
--- Applying:
    C:\GAMS\34\gmsprmNT.txt
--- GAMS Parameters defined
    Input "C:\Users\kaspe\OneDrive\Documents\UiO\MASTEROPPGAVE\GAMS -Models\Scenario F\EVCS_15_F.gms"
    ScrDir "C:\Users\kaspe\OneDrive\Documents\UiO\MASTEROPPGAVE\GAMS -Models\Scenario F\225a\"
    SysDir C:\GAMS\34\
    LogOption 2
Licensee: Small MUD - 5 User License                     S210208|0002AO-WIN
          University of Oslo, Institute for Technology Systems      DC15723
          C:\Users\kaspe\OneDrive\Documents\GAMS\gamslice.txt
          License Admin: Arild Hemstad, arild.hemstad@its.uio.no           
GAMS 34.3.0   Copyright (C) 1987-2021 GAMS Development. All rights reserved
--- Starting compilation
--- EVCS_15_F.gms(36) 6 Mb
--- . demand_winter.tsv(276336) 7 Mb
--- EVCS_15_F.gms(42) 7 Mb
--- . Prices_Winter.tsv(34542) 8 Mb
--- EVCS_15_F.gms(228) 8 Mb
--- Starting execution: elapsed 0:00:00.954
--- EVCS_15_F.gms(311002) 11 Mb
--- Generating MIP model optimal_generation
--- EVCS_15_F.gms(311098) 125 Mb
---   518,134 rows  276,348 columns  1,381,690 non-zeroes
--- Executing CPLEX (Solvelink=2): elapsed 0:00:08.824

IBM ILOG CPLEX   34.3.0 rac355f3 Released Feb 25, 2021 WEI x86 64bit/MS Window

--- GAMS/Cplex licensed for continuous and discrete problems.
--- Space for names approximately 23.94 Mb
--- Use option 'names no' to turn use of names off
--- GMO memory 153.50 Mb (peak 155.61 Mb)
--- Dictionary memory 0.00 Mb
--- Cplex 20.1.0.0 link memory 11.20 Mb (peak 57.37 Mb)
--- Starting Cplex

Version identifier: 20.1.0.0 | 2020-11-10 | 9bedb6d68
CPXPARAM_Advance                                 0
CPXPARAM_Threads                                 1
CPXPARAM_MIP_Display                             4
CPXPARAM_MIP_Tolerances_AbsMIPGap                0
Tried aggregator 1 time.
LP Presolve eliminated 207255 rows and 69090 columns.
Aggregator did 69085 substitutions.
Reduced LP has 241793 rows, 138173 columns, and 690834 nonzeros.
Presolve time = 9.36 sec. (8441.34 ticks)
Initializing dual steep norms . . .

Iteration log . . .
Iteration:     1   Dual objective     =          3367.354595
Elapsed time = 12.19 sec. (10004.14 ticks, 669 iterations)
Iteration:   912   Dual objective     =         74988.930139
Iteration:  2767   Dual objective     =         98457.802095
Iteration:  4366   Dual objective     =        128330.637233
Iteration:  5481   Dual objective     =        147936.437078
Iteration:  7928   Dual objective     =        166062.975792
Iteration: 11126   Dual objective     =        184826.781657
Iteration: 14236   Dual objective     =        199168.259132
Iteration: 17354   Dual objective     =        211301.086371
Iteration: 19842   Dual objective     =        219908.221810
Iteration: 22300   Dual objective     =        227563.919548
Iteration: 23620   Dual objective     =        231116.188383
Iteration: 26115   Dual objective     =        236258.366459
Iteration: 28052   Dual objective     =        240413.151985
Iteration: 30504   Dual objective     =        244352.144559
Iteration: 31989   Dual objective     =        245572.132269

--- LP status (1): optimal.
--- Cplex Time: 26.91sec (det. 19058.04 ticks)


Optimal solution found
Objective:       245973.123402

--- Reading solution for model optimal_generation
--- Executing after solve: elapsed 0:00:42.833
--- EVCS_15_F.gms(311100) 125 Mb
--- GDX File (execute_unload) C:\Users\kaspe\OneDrive\Documents\UiO\MASTEROPPGAVE\GAMS -Models\Scenario F\EVCS_15_F.gdx
--- EVCS_15_F.gms(311104) 125 Mb
--- GDX File (execute_unload) C:\Users\kaspe\OneDrive\Documents\UiO\MASTEROPPGAVE\GAMS -Models\Scenario F\EVCS_15_F.gdx
--- EVCS_15_F.gms(311105) 125 Mb
*** Status: Normal completion
--- Job EVCS_15_F.gms Stop 04/29/22 23:32:53 elapsed 0:00:46.367
